vortrn_slots = 2;
s_daten = [(id: 1, tag: "Fr", start: "08:45", ende: "09:30"), (id: 2, tag: "Fr", start: "09:45", ende: "10:30")];

n_raeume = 5;
r_daten = [(name: "A-2.02", kapazitaet: 27, etage: "2.OG"), (name: "A-2.03", kapazitaet: 27, etage: "2.OG"), (name: "A-2.04", kapazitaet: 27, etage: "2.OG"), (name: "A-2.05", kapazitaet: 27, etage: "2.OG"), (name: "A-2.06", kapazitaet: 27, etage: "2.OG")];

% WV-Verfügbarkeit von Slots je Raum:
raum_verfuegbar=[|
 true, true |
 true, true |
 true, true |
 true, true |
 true, true |];

n_wahlvortraege = 5;
w_daten = [(name: "Praktika-Mix 1", referent_id: 1, moegliche_slot_ids: [1, 2]), (name: "Praktika-Mix 2", referent_id: 2, moegliche_slot_ids: [1, 2]), (name: "Praktika-Mix 3", referent_id: 3, moegliche_slot_ids: [1, 2]), (name: "Praktika-Mix 4", referent_id: 4, moegliche_slot_ids: [1, 2]), (name: "Praktika-Mix 5", referent_id: 5, moegliche_slot_ids: [1, 2])];

n_personen = 55;
p_daten = [(name: "Adams, Amy Sofie", klasse: "8.3", prios: [0, 3, 2, 1, 0]), (name: "Al Sharaa, Adham", klasse: "8.3", prios: [0, 3, 2, 1, 0]), (name: "Bacaj, Alex", klasse: "8.3", prios: [0, 1, 2, 3, 0]), (name: "Boppard, Matthea Christina Leonora", klasse: "8.3", prios: [0, 3, 2, 1, 0]), (name: "Brücken, Tom", klasse: "8.3", prios: [3, 2, 0, 0, 1]), (name: "Debus, Milo", klasse: "8.3", prios: [1, 3, 0, 0, 2]), (name: "Degen, Philipp", klasse: "8.3", prios: [3, 2, 0, 0, 1]), (name: "Dütz, Alicia", klasse: "8.3", prios: [0, 3, 1, 2, 0]), (name: "Fetaj, Getoar", klasse: "8.3", prios: [0, 1, 2, 3, 0]), (name: "Jochmus-Stöcke, Aina Maria Eleonore", klasse: "8.3", prios: [0, 2, 1, 3, 0]), (name: "Jünger, Maya", klasse: "8.3", prios: [2, 3, 0, 1, 0]), (name: "Knieps, Ellen Felizitas", klasse: "8.3", prios: [0, 1, 2, 0, 3]), (name: "Kreps, Amy Vita", klasse: "8.3", prios: [0, 2, 1, 3, 0]), (name: "Kroon, Jesse Kiamo Keanu", klasse: "8.3", prios: [0, 2, 1, 3, 0]), (name: "Löwen, Roman", klasse: "8.3", prios: [2, 3, 0, 0, 1]), (name: "Moch, Jonathan Mischa", klasse: "8.3", prios: [3, 1, 0, 0, 2]), (name: "Pfefferkorn, Jayden Brian", klasse: "8.3", prios: [1, 2, 3, 0, 0]), (name: "Prause, Mila Paulina", klasse: "8.3", prios: [0, 1, 2, 3, 0]), (name: "Saal, Charlotte", klasse: "8.3", prios: [0, 3, 2, 1, 0]), (name: "Salz, Johann Leonard", klasse: "8.3", prios: [3, 2, 0, 0, 1]), (name: "Samaam, Youssef", klasse: "8.3", prios: [3, 1, 0, 0, 2]), (name: "Schulte, Erik", klasse: "8.3", prios: [1, 3, 0, 0, 2]), (name: "Senk, Isabell", klasse: "8.3", prios: [0, 2, 1, 3, 0]), (name: "Siebenmorgen, Lukas", klasse: "8.3", prios: [1, 3, 0, 0, 2]), (name: "Söllinger, Luca", klasse: "8.3", prios: [0, 1, 2, 3, 0]), (name: "Voß, Jocelyn Isabelle", klasse: "8.3", prios: [0, 0, 1, 2, 3]), (name: "Weber, Julian", klasse: "8.3", prios: [3, 2, 0, 0, 1]), (name: "Ates, Berfin", klasse: "8.4", prios: [0, 1, 3, 2, 0]), (name: "Buhr, Vincent", klasse: "8.4", prios: [1, 0, 2, 0, 3]), (name: "Dötsch, Mariella", klasse: "8.4", prios: [0, 3, 2, 1, 0]), (name: "Gavak, Aykan", klasse: "8.4", prios: [0, 1, 2, 3, 0]), (name: "Gjocaj, Eljona", klasse: "8.4", prios: [0, 1, 2, 3, 0]), (name: "Grabanica, Fahire", klasse: "8.4", prios: [0, 1, 3, 2, 0]), (name: "Hefner, Jan Poul", klasse: "8.4", prios: [2, 3, 0, 0, 1]), (name: "Hohn, Finnegan Floyd", klasse: "8.4", prios: [3, 1, 0, 0, 2]), (name: "Jasiqi, Aurela", klasse: "8.4", prios: [0, 1, 2, 3, 0]), (name: "Kabaoglu, Esila", klasse: "8.4", prios: [0, 1, 2, 3, 0]), (name: "Kabaoglu, Yaman", klasse: "8.4", prios: [1, 3, 0, 0, 2]), (name: "Keller, Julian", klasse: "8.4", prios: [3, 0, 0, 2, 1]), (name: "Kerp, Till", klasse: "8.4", prios: [1, 2, 0, 0, 3]), (name: "Kuburas, Elvin", klasse: "8.4", prios: [0, 1, 2, 3, 0]), (name: "Kuqi, Leart", klasse: "8.4", prios: [2, 3, 0, 0, 1]), (name: "Labonde, Finn Lukas", klasse: "8.4", prios: [2, 3, 0, 0, 1]), (name: "Liebenau, Kjell", klasse: "8.4", prios: [2, 3, 0, 0, 1]), (name: "Maksutaj, Lia", klasse: "8.4", prios: [0, 0, 0, 0, 0]), (name: "Pettineo, Jeremia Gabriel", klasse: "8.4", prios: [0, 2, 3, 0, 1]), (name: "Ramaj, Elonisa", klasse: "8.4", prios: [0, 1, 2, 3, 0]), (name: "Reufels, Lea", klasse: "8.4", prios: [0, 1, 2, 3, 0]), (name: "Schläger, Jordan Felix", klasse: "8.4", prios: [2, 1, 0, 0, 3]), (name: "Schlömer, Marla", klasse: "8.4", prios: [0, 3, 2, 1, 0]), (name: "Schwarz, Shane Philip", klasse: "8.4", prios: [3, 0, 0, 2, 1]), (name: "Storck, Tim", klasse: "8.4", prios: [1, 3, 2, 0, 0]), (name: "Szumilas, Julia-Laura", klasse: "8.4", prios: [0, 3, 2, 1, 0]), (name: "Theodor, Odile", klasse: "8.4", prios: [0, 1, 2, 3, 0]), (name: "Wahidie, Mohammad Yonis", klasse: "8.4", prios: [0, 0, 3, 1, 2])];
p_prioritaeten = [|
  0, 3, 2, 1, 0 |
  0, 3, 2, 1, 0 |
  0, 1, 2, 3, 0 |
  0, 3, 2, 1, 0 |
  3, 2, 0, 0, 1 |
  1, 3, 0, 0, 2 |
  3, 2, 0, 0, 1 |
  0, 3, 1, 2, 0 |
  0, 1, 2, 3, 0 |
  0, 2, 1, 3, 0 |
  2, 3, 0, 1, 0 |
  0, 1, 2, 0, 3 |
  0, 2, 1, 3, 0 |
  0, 2, 1, 3, 0 |
  2, 3, 0, 0, 1 |
  3, 1, 0, 0, 2 |
  1, 2, 3, 0, 0 |
  0, 1, 2, 3, 0 |
  0, 3, 2, 1, 0 |
  3, 2, 0, 0, 1 |
  3, 1, 0, 0, 2 |
  1, 3, 0, 0, 2 |
  0, 2, 1, 3, 0 |
  1, 3, 0, 0, 2 |
  0, 1, 2, 3, 0 |
  0, 0, 1, 2, 3 |
  3, 2, 0, 0, 1 |
  0, 1, 3, 2, 0 |
  1, 0, 2, 0, 3 |
  0, 3, 2, 1, 0 |
  0, 1, 2, 3, 0 |
  0, 1, 2, 3, 0 |
  0, 1, 3, 2, 0 |
  2, 3, 0, 0, 1 |
  3, 1, 0, 0, 2 |
  0, 1, 2, 3, 0 |
  0, 1, 2, 3, 0 |
  1, 3, 0, 0, 2 |
  3, 0, 0, 2, 1 |
  1, 2, 0, 0, 3 |
  0, 1, 2, 3, 0 |
  2, 3, 0, 0, 1 |
  2, 3, 0, 0, 1 |
  2, 3, 0, 0, 1 |
  0, 0, 0, 0, 0 |
  0, 2, 3, 0, 1 |
  0, 1, 2, 3, 0 |
  0, 1, 2, 3, 0 |
  2, 1, 0, 0, 3 |
  0, 3, 2, 1, 0 |
  3, 0, 0, 2, 1 |
  1, 3, 2, 0, 0 |
  0, 3, 2, 1, 0 |
  0, 1, 2, 3, 0 |
  0, 0, 3, 1, 2 |];

%In welchen Slots jeder Teilnehmer für Wahlvorträge planbar ist:
tn_verfuegbar=[|
 true, true |
 true, true |
 true, true |
 true, true |
 true, true |
 true, true |
 true, true |
 true, true |
 true, true |
 true, true |
 true, true |
 true, true |
 true, true |
 true, true |
 true, true |
 true, true |
 true, true |
 true, true |
 true, true |
 true, true |
 true, true |
 true, true |
 true, true |
 true, true |
 true, true |
 true, true |
 true, true |
 true, true |
 true, true |
 true, true |
 true, true |
 true, true |
 true, true |
 true, true |
 true, true |
 true, true |
 true, true |
 true, true |
 true, true |
 true, true |
 true, true |
 true, true |
 true, true |
 true, true |
 true, true |
 true, true |
 true, true |
 true, true |
 true, true |
 true, true |
 true, true |
 true, true |
 true, true |
 true, true |
 true, true |];

max_instanzen = 2;
opt_referent_raumtreue = true;
